c description: Perfect Matching Principle on 
c generator: CNFgen (0.9.0)
c copyright: (C) 2012-2020 Massimo Lauria <massimo.lauria@uniroma1.it>
c url: https://massimolauria.net/cnfgen
c
p cnf 80 634
-1 -2 0
-1 -3 0
-1 -4 0
-1 -5 0
-1 -6 0
-1 -7 0
-2 -3 0
-2 -4 0
-2 -5 0
-2 -6 0
-2 -7 0
-3 -4 0
-3 -5 0
-3 -6 0
-3 -7 0
-4 -5 0
-4 -6 0
-4 -7 0
-5 -6 0
-5 -7 0
-6 -7 0
1 2 3 4 5 6 7 0
-8 -9 0
-8 -10 0
-8 -11 0
-8 -12 0
-8 -13 0
-8 -14 0
-9 -10 0
-9 -11 0
-9 -12 0
-9 -13 0
-9 -14 0
-10 -11 0
-10 -12 0
-10 -13 0
-10 -14 0
-11 -12 0
-11 -13 0
-11 -14 0
-12 -13 0
-12 -14 0
-13 -14 0
8 9 10 11 12 13 14 0
-15 -16 0
-15 -17 0
-15 -18 0
-15 -19 0
-15 -20 0
-15 -21 0
-15 -22 0
-16 -17 0
-16 -18 0
-16 -19 0
-16 -20 0
-16 -21 0
-16 -22 0
-17 -18 0
-17 -19 0
-17 -20 0
-17 -21 0
-17 -22 0
-18 -19 0
-18 -20 0
-18 -21 0
-18 -22 0
-19 -20 0
-19 -21 0
-19 -22 0
-20 -21 0
-20 -22 0
-21 -22 0
15 16 17 18 19 20 21 22 0
-8 -15 0
-8 -23 0
-8 -24 0
-8 -25 0
-8 -26 0
-8 -27 0
-8 -28 0
-15 -23 0
-15 -24 0
-15 -25 0
-15 -26 0
-15 -27 0
-15 -28 0
-23 -24 0
-23 -25 0
-23 -26 0
-23 -27 0
-23 -28 0
-24 -25 0
-24 -26 0
-24 -27 0
-24 -28 0
-25 -26 0
-25 -27 0
-25 -28 0
-26 -27 0
-26 -28 0
-27 -28 0
8 15 23 24 25 26 27 28 0
-9 -29 0
-9 -30 0
-9 -31 0
-9 -32 0
-9 -33 0
-9 -34 0
-29 -30 0
-29 -31 0
-29 -32 0
-29 -33 0
-29 -34 0
-30 -31 0
-30 -32 0
-30 -33 0
-30 -34 0
-31 -32 0
-31 -33 0
-31 -34 0
-32 -33 0
-32 -34 0
-33 -34 0
9 29 30 31 32 33 34 0
-35 -36 0
-35 -37 0
-35 -38 0
-35 -39 0
-36 -37 0
-36 -38 0
-36 -39 0
-37 -38 0
-37 -39 0
-38 -39 0
35 36 37 38 39 0
-1 -10 0
-1 -40 0
-1 -41 0
-1 -42 0
-1 -43 0
-10 -40 0
-10 -41 0
-10 -42 0
-10 -43 0
-40 -41 0
-40 -42 0
-40 -43 0
-41 -42 0
-41 -43 0
-42 -43 0
1 10 40 41 42 43 0
-16 -23 0
-16 -35 0
-16 -44 0
-16 -45 0
-16 -46 0
-16 -47 0
-23 -35 0
-23 -44 0
-23 -45 0
-23 -46 0
-23 -47 0
-35 -44 0
-35 -45 0
-35 -46 0
-35 -47 0
-44 -45 0
-44 -46 0
-44 -47 0
-45 -46 0
-45 -47 0
-46 -47 0
16 23 35 44 45 46 47 0
-24 -48 0
-24 -49 0
-24 -50 0
-24 -51 0
-24 -52 0
-24 -53 0
-48 -49 0
-48 -50 0
-48 -51 0
-48 -52 0
-48 -53 0
-49 -50 0
-49 -51 0
-49 -52 0
-49 -53 0
-50 -51 0
-50 -52 0
-50 -53 0
-51 -52 0
-51 -53 0
-52 -53 0
24 48 49 50 51 52 53 0
-2 -44 0
-2 -54 0
-2 -55 0
-44 -54 0
-44 -55 0
-54 -55 0
2 44 54 55 0
-3 -11 0
-3 -17 0
-3 -25 0
-3 -29 0
-3 -45 0
-3 -54 0
-3 -56 0
-3 -57 0
-3 -58 0
-3 -59 0
-3 -60 0
-3 -61 0
-3 -62 0
-11 -17 0
-11 -25 0
-11 -29 0
-11 -45 0
-11 -54 0
-11 -56 0
-11 -57 0
-11 -58 0
-11 -59 0
-11 -60 0
-11 -61 0
-11 -62 0
-17 -25 0
-17 -29 0
-17 -45 0
-17 -54 0
-17 -56 0
-17 -57 0
-17 -58 0
-17 -59 0
-17 -60 0
-17 -61 0
-17 -62 0
-25 -29 0
-25 -45 0
-25 -54 0
-25 -56 0
-25 -57 0
-25 -58 0
-25 -59 0
-25 -60 0
-25 -61 0
-25 -62 0
-29 -45 0
-29 -54 0
-29 -56 0
-29 -57 0
-29 -58 0
-29 -59 0
-29 -60 0
-29 -61 0
-29 -62 0
-45 -54 0
-45 -56 0
-45 -57 0
-45 -58 0
-45 -59 0
-45 -60 0
-45 -61 0
-45 -62 0
-54 -56 0
-54 -57 0
-54 -58 0
-54 -59 0
-54 -60 0
-54 -61 0
-54 -62 0
-56 -57 0
-56 -58 0
-56 -59 0
-56 -60 0
-56 -61 0
-56 -62 0
-57 -58 0
-57 -59 0
-57 -60 0
-57 -61 0
-57 -62 0
-58 -59 0
-58 -60 0
-58 -61 0
-58 -62 0
-59 -60 0
-59 -61 0
-59 -62 0
-60 -61 0
-60 -62 0
-61 -62 0
3 11 17 25 29 45 54 56 57 58 59 60 61 62 0
-4 -12 0
-4 -18 0
-4 -30 0
-4 -48 0
-4 -56 0
-4 -63 0
-4 -64 0
-4 -65 0
-4 -66 0
-4 -67 0
-12 -18 0
-12 -30 0
-12 -48 0
-12 -56 0
-12 -63 0
-12 -64 0
-12 -65 0
-12 -66 0
-12 -67 0
-18 -30 0
-18 -48 0
-18 -56 0
-18 -63 0
-18 -64 0
-18 -65 0
-18 -66 0
-18 -67 0
-30 -48 0
-30 -56 0
-30 -63 0
-30 -64 0
-30 -65 0
-30 -66 0
-30 -67 0
-48 -56 0
-48 -63 0
-48 -64 0
-48 -65 0
-48 -66 0
-48 -67 0
-56 -63 0
-56 -64 0
-56 -65 0
-56 -66 0
-56 -67 0
-63 -64 0
-63 -65 0
-63 -66 0
-63 -67 0
-64 -65 0
-64 -66 0
-64 -67 0
-65 -66 0
-65 -67 0
-66 -67 0
4 12 18 30 48 56 63 64 65 66 67 0
-13 -46 0
-13 -49 0
-13 -63 0
-13 -68 0
-13 -69 0
-46 -49 0
-46 -63 0
-46 -68 0
-46 -69 0
-49 -63 0
-49 -68 0
-49 -69 0
-63 -68 0
-63 -69 0
-68 -69 0
13 46 49 63 68 69 0
-5 -36 0
-5 -50 0
-5 -57 0
-5 -64 0
-5 -70 0
-5 -71 0
-5 -72 0
-5 -73 0
-5 -74 0
-36 -50 0
-36 -57 0
-36 -64 0
-36 -70 0
-36 -71 0
-36 -72 0
-36 -73 0
-36 -74 0
-50 -57 0
-50 -64 0
-50 -70 0
-50 -71 0
-50 -72 0
-50 -73 0
-50 -74 0
-57 -64 0
-57 -70 0
-57 -71 0
-57 -72 0
-57 -73 0
-57 -74 0
-64 -70 0
-64 -71 0
-64 -72 0
-64 -73 0
-64 -74 0
-70 -71 0
-70 -72 0
-70 -73 0
-70 -74 0
-71 -72 0
-71 -73 0
-71 -74 0
-72 -73 0
-72 -74 0
-73 -74 0
5 36 50 57 64 70 71 72 73 74 0
-14 -19 0
-14 -31 0
-14 -40 0
-14 -58 0
-14 -68 0
-14 -75 0
-14 -76 0
-19 -31 0
-19 -40 0
-19 -58 0
-19 -68 0
-19 -75 0
-19 -76 0
-31 -40 0
-31 -58 0
-31 -68 0
-31 -75 0
-31 -76 0
-40 -58 0
-40 -68 0
-40 -75 0
-40 -76 0
-58 -68 0
-58 -75 0
-58 -76 0
-68 -75 0
-68 -76 0
-75 -76 0
14 19 31 40 58 68 75 76 0
-6 -26 0
-6 -32 0
-6 -41 0
-6 -51 0
-6 -59 0
-6 -65 0
-6 -70 0
-6 -75 0
-6 -77 0
-6 -78 0
-26 -32 0
-26 -41 0
-26 -51 0
-26 -59 0
-26 -65 0
-26 -70 0
-26 -75 0
-26 -77 0
-26 -78 0
-32 -41 0
-32 -51 0
-32 -59 0
-32 -65 0
-32 -70 0
-32 -75 0
-32 -77 0
-32 -78 0
-41 -51 0
-41 -59 0
-41 -65 0
-41 -70 0
-41 -75 0
-41 -77 0
-41 -78 0
-51 -59 0
-51 -65 0
-51 -70 0
-51 -75 0
-51 -77 0
-51 -78 0
-59 -65 0
-59 -70 0
-59 -75 0
-59 -77 0
-59 -78 0
-65 -70 0
-65 -75 0
-65 -77 0
-65 -78 0
-70 -75 0
-70 -77 0
-70 -78 0
-75 -77 0
-75 -78 0
-77 -78 0
6 26 32 41 51 59 65 70 75 77 78 0
-20 -37 0
-20 -42 0
-20 -52 0
-20 -71 0
-20 -79 0
-37 -42 0
-37 -52 0
-37 -71 0
-37 -79 0
-42 -52 0
-42 -71 0
-42 -79 0
-52 -71 0
-52 -79 0
-71 -79 0
20 37 42 52 71 79 0
-7 -21 0
-7 -27 0
-7 -33 0
-7 -43 0
-7 -53 0
-7 -60 0
-7 -66 0
-7 -72 0
-7 -77 0
-21 -27 0
-21 -33 0
-21 -43 0
-21 -53 0
-21 -60 0
-21 -66 0
-21 -72 0
-21 -77 0
-27 -33 0
-27 -43 0
-27 -53 0
-27 -60 0
-27 -66 0
-27 -72 0
-27 -77 0
-33 -43 0
-33 -53 0
-33 -60 0
-33 -66 0
-33 -72 0
-33 -77 0
-43 -53 0
-43 -60 0
-43 -66 0
-43 -72 0
-43 -77 0
-53 -60 0
-53 -66 0
-53 -72 0
-53 -77 0
-60 -66 0
-60 -72 0
-60 -77 0
-66 -72 0
-66 -77 0
-72 -77 0
7 21 27 33 43 53 60 66 72 77 0
-38 -47 0
-38 -61 0
-38 -67 0
-38 -69 0
-38 -73 0
-38 -76 0
-38 -80 0
-47 -61 0
-47 -67 0
-47 -69 0
-47 -73 0
-47 -76 0
-47 -80 0
-61 -67 0
-61 -69 0
-61 -73 0
-61 -76 0
-61 -80 0
-67 -69 0
-67 -73 0
-67 -76 0
-67 -80 0
-69 -73 0
-69 -76 0
-69 -80 0
-73 -76 0
-73 -80 0
-76 -80 0
38 47 61 67 69 73 76 80 0
-22 -28 0
-22 -34 0
-22 -39 0
-22 -55 0
-22 -62 0
-22 -74 0
-22 -78 0
-22 -79 0
-22 -80 0
-28 -34 0
-28 -39 0
-28 -55 0
-28 -62 0
-28 -74 0
-28 -78 0
-28 -79 0
-28 -80 0
-34 -39 0
-34 -55 0
-34 -62 0
-34 -74 0
-34 -78 0
-34 -79 0
-34 -80 0
-39 -55 0
-39 -62 0
-39 -74 0
-39 -78 0
-39 -79 0
-39 -80 0
-55 -62 0
-55 -74 0
-55 -78 0
-55 -79 0
-55 -80 0
-62 -74 0
-62 -78 0
-62 -79 0
-62 -80 0
-74 -78 0
-74 -79 0
-74 -80 0
-78 -79 0
-78 -80 0
-79 -80 0
22 28 34 39 55 62 74 78 79 80 0